(set-logic HORN)
(declare-datatypes ((Nat_0 0)) (((Z_0 ) (S_0 (unS_0 Nat_0)))))
(declare-fun diseqNat_0 (Nat_0 Nat_0) Bool)
(declare-fun unS_1 (Nat_0 Nat_0) Bool)
(declare-fun isZ_0 (Nat_0) Bool)
(declare-fun isS_0 (Nat_0) Bool)
(assert (forall ((x_79 Nat_0) (x_78 Nat_0))
	(=> (= x_79 (S_0 x_78))
	    (unS_1 x_78 x_79))))
(assert (isZ_0 Z_0))
(assert (forall ((x_80 Nat_0))
	(isS_0 (S_0 x_80))))
(assert (forall ((x_81 Nat_0))
	(diseqNat_0 Z_0 (S_0 x_81))))
(assert (forall ((x_82 Nat_0))
	(diseqNat_0 (S_0 x_82) Z_0)))
(assert (forall ((x_83 Nat_0) (x_84 Nat_0))
	(=> (diseqNat_0 x_83 x_84)
	    (diseqNat_0 (S_0 x_83) (S_0 x_84)))))
(declare-fun add_0 (Nat_0 Nat_0 Nat_0) Bool)
(declare-fun minus_0 (Nat_0 Nat_0 Nat_0) Bool)
(declare-fun le_0 (Nat_0 Nat_0) Bool)
(declare-fun ge_0 (Nat_0 Nat_0) Bool)
(declare-fun lt_0 (Nat_0 Nat_0) Bool)
(declare-fun gt_0 (Nat_0 Nat_0) Bool)
(declare-fun mult_0 (Nat_0 Nat_0 Nat_0) Bool)
(declare-fun div_0 (Nat_0 Nat_0 Nat_0) Bool)
(declare-fun mod_0 (Nat_0 Nat_0 Nat_0) Bool)
(assert (forall ((y_11 Nat_0))
	(add_0 y_11 Z_0 y_11)))
(assert (forall ((x_71 Nat_0) (y_11 Nat_0) (r_0 Nat_0))
	(=> (add_0 r_0 x_71 y_11)
	    (add_0 (S_0 r_0) (S_0 x_71) y_11))))
(assert (forall ((y_11 Nat_0))
	(minus_0 Z_0 Z_0 y_11)))
(assert (forall ((x_71 Nat_0) (y_11 Nat_0) (r_0 Nat_0))
	(=> (minus_0 r_0 x_71 y_11)
	    (minus_0 (S_0 r_0) (S_0 x_71) y_11))))
(assert (forall ((y_11 Nat_0))
	(le_0 Z_0 y_11)))
(assert (forall ((x_71 Nat_0) (y_11 Nat_0))
	(=> (le_0 x_71 y_11)
	    (le_0 (S_0 x_71) (S_0 y_11)))))
(assert (forall ((y_11 Nat_0))
	(ge_0 y_11 Z_0)))
(assert (forall ((x_71 Nat_0) (y_11 Nat_0))
	(=> (ge_0 x_71 y_11)
	    (ge_0 (S_0 x_71) (S_0 y_11)))))
(assert (forall ((y_11 Nat_0))
	(lt_0 Z_0 (S_0 y_11))))
(assert (forall ((x_71 Nat_0) (y_11 Nat_0))
	(=> (lt_0 x_71 y_11)
	    (lt_0 (S_0 x_71) (S_0 y_11)))))
(assert (forall ((y_11 Nat_0))
	(gt_0 (S_0 y_11) Z_0)))
(assert (forall ((x_71 Nat_0) (y_11 Nat_0))
	(=> (gt_0 x_71 y_11)
	    (gt_0 (S_0 x_71) (S_0 y_11)))))
(assert (forall ((y_11 Nat_0))
	(mult_0 Z_0 Z_0 y_11)))
(assert (forall ((x_71 Nat_0) (y_11 Nat_0) (r_0 Nat_0) (z_5 Nat_0))
	(=>	(and (mult_0 r_0 x_71 y_11)
			(add_0 z_5 r_0 y_11))
		(mult_0 z_5 (S_0 x_71) y_11))))
(assert (forall ((x_71 Nat_0) (y_11 Nat_0))
	(=> (lt_0 x_71 y_11)
	    (div_0 Z_0 x_71 y_11))))
(assert (forall ((x_71 Nat_0) (y_11 Nat_0) (r_0 Nat_0) (z_5 Nat_0))
	(=>	(and (ge_0 x_71 y_11)
			(minus_0 z_5 x_71 y_11)
			(div_0 r_0 z_5 y_11))
		(div_0 (S_0 r_0) x_71 y_11))))
(assert (forall ((x_71 Nat_0) (y_11 Nat_0))
	(=> (lt_0 x_71 y_11)
	    (mod_0 x_71 x_71 y_11))))
(assert (forall ((x_71 Nat_0) (y_11 Nat_0) (r_0 Nat_0) (z_5 Nat_0))
	(=>	(and (ge_0 x_71 y_11)
			(minus_0 z_5 x_71 y_11)
			(mod_0 r_0 z_5 y_11))
		(mod_0 r_0 x_71 y_11))))
(declare-datatypes ((list_0 0)) (((nil_0 ) (cons_0 (head_0 Nat_0) (tail_0 list_0)))))
(declare-fun diseqlist_0 (list_0 list_0) Bool)
(declare-fun head_1 (Nat_0 list_0) Bool)
(declare-fun tail_1 (list_0 list_0) Bool)
(declare-fun isnil_0 (list_0) Bool)
(declare-fun iscons_0 (list_0) Bool)
(assert (forall ((x_88 list_0) (x_86 Nat_0) (x_87 list_0))
	(=> (= x_88 (cons_0 x_86 x_87))
	    (head_1 x_86 x_88))))
(assert (forall ((x_88 list_0) (x_86 Nat_0) (x_87 list_0))
	(=> (= x_88 (cons_0 x_86 x_87))
	    (tail_1 x_87 x_88))))
(assert (isnil_0 nil_0))
(assert (forall ((x_89 Nat_0) (x_90 list_0))
	(iscons_0 (cons_0 x_89 x_90))))
(assert (forall ((x_91 Nat_0) (x_92 list_0))
	(diseqlist_0 nil_0 (cons_0 x_91 x_92))))
(assert (forall ((x_93 Nat_0) (x_94 list_0))
	(diseqlist_0 (cons_0 x_93 x_94) nil_0)))
(assert (forall ((x_95 Nat_0) (x_96 list_0) (x_97 Nat_0) (x_98 list_0))
	(=> (diseqNat_0 x_95 x_97)
	    (diseqlist_0 (cons_0 x_95 x_96) (cons_0 x_97 x_98)))))
(assert (forall ((x_95 Nat_0) (x_96 list_0) (x_97 Nat_0) (x_98 list_0))
	(=> (diseqlist_0 x_96 x_98)
	    (diseqlist_0 (cons_0 x_95 x_96) (cons_0 x_97 x_98)))))
(declare-datatypes ((pair_0 0)) (((pair_1 (projpair_0 list_0) (projpair_1 list_0)))))
(declare-fun diseqpair_0 (pair_0 pair_0) Bool)
(declare-fun projpair_2 (list_0 pair_0) Bool)
(declare-fun projpair_3 (list_0 pair_0) Bool)
(declare-fun ispair_0 (pair_0) Bool)
(assert (forall ((x_101 pair_0) (x_99 list_0) (x_100 list_0))
	(=> (= x_101 (pair_1 x_99 x_100))
	    (projpair_2 x_99 x_101))))
(assert (forall ((x_101 pair_0) (x_99 list_0) (x_100 list_0))
	(=> (= x_101 (pair_1 x_99 x_100))
	    (projpair_3 x_100 x_101))))
(assert (forall ((x_102 list_0) (x_103 list_0))
	(ispair_0 (pair_1 x_102 x_103))))
(assert (forall ((x_104 list_0) (x_105 list_0) (x_106 list_0) (x_107 list_0))
	(=> (diseqlist_0 x_104 x_106)
	    (diseqpair_0 (pair_1 x_104 x_105) (pair_1 x_106 x_107)))))
(assert (forall ((x_104 list_0) (x_105 list_0) (x_106 list_0) (x_107 list_0))
	(=> (diseqlist_0 x_105 x_107)
	    (diseqpair_0 (pair_1 x_104 x_105) (pair_1 x_106 x_107)))))
(declare-fun take_0 (list_0 Nat_0 list_0) Bool)
(assert (forall ((x_0 Nat_0) (y_0 list_0) (x_16 list_0))
	(=>	(and (= x_16 nil_0)
			(le_0 x_0 Z_0))
		(take_0 x_16 x_0 y_0))))
(assert (forall ((x_0 Nat_0) (y_0 list_0) (z_0 Nat_0) (xs_0 list_0) (x_17 list_0) (x_18 list_0) (x_72 Nat_0))
	(=>	(and (= x_17 (cons_0 z_0 x_18))
			(take_0 x_18 x_72 xs_0)
			(gt_0 x_0 Z_0)
			(= y_0 (cons_0 z_0 xs_0))
			(minus_0 x_72 x_0 (S_0 Z_0)))
		(take_0 x_17 x_0 y_0))))
(assert (forall ((x_0 Nat_0) (y_0 list_0) (x_19 list_0))
	(=>	(and (= x_19 nil_0)
			(le_0 x_0 Z_0))
		(take_0 x_19 x_0 y_0))))
(assert (forall ((x_0 Nat_0) (y_0 list_0) (x_20 list_0))
	(=>	(and (= x_20 nil_0)
			(gt_0 x_0 Z_0)
			(= y_0 nil_0))
		(take_0 x_20 x_0 y_0))))
(declare-fun sort_0 (list_0 Nat_0 Nat_0) Bool)
(assert (forall ((x_1 Nat_0) (y_1 Nat_0) (x_21 list_0))
	(=>	(and (= x_21 (cons_0 x_1 (cons_0 y_1 nil_0)))
			(le_0 x_1 y_1))
		(sort_0 x_21 x_1 y_1))))
(assert (forall ((x_1 Nat_0) (y_1 Nat_0) (x_22 list_0))
	(=>	(and (= x_22 (cons_0 y_1 (cons_0 x_1 nil_0)))
			(gt_0 x_1 y_1))
		(sort_0 x_22 x_1 y_1))))
(declare-fun length_0 (Nat_0 list_0) Bool)
(assert (forall ((x_2 list_0) (y_2 Nat_0) (l_0 list_0) (x_23 Nat_0) (x_24 Nat_0) (x_73 Nat_0))
	(=>	(and (= x_23 x_73)
			(length_0 x_24 l_0)
			(= x_2 (cons_0 y_2 l_0))
			(add_0 x_73 (S_0 Z_0) x_24))
		(length_0 x_23 x_2))))
(assert (forall ((x_2 list_0) (x_25 Nat_0))
	(=>	(and (= x_25 Z_0)
			(= x_2 nil_0))
		(length_0 x_25 x_2))))
(declare-fun insert_0 (list_0 Nat_0 list_0) Bool)
(assert (forall ((x_3 Nat_0) (y_3 list_0) (z_1 Nat_0) (xs_1 list_0) (x_26 list_0))
	(=>	(and (= x_26 (cons_0 x_3 (cons_0 z_1 xs_1)))
			(= y_3 (cons_0 z_1 xs_1))
			(le_0 x_3 z_1))
		(insert_0 x_26 x_3 y_3))))
(assert (forall ((x_3 Nat_0) (y_3 list_0) (z_1 Nat_0) (xs_1 list_0) (x_27 list_0) (x_28 list_0))
	(=>	(and (= x_27 (cons_0 z_1 x_28))
			(insert_0 x_28 x_3 xs_1)
			(= y_3 (cons_0 z_1 xs_1))
			(gt_0 x_3 z_1))
		(insert_0 x_27 x_3 y_3))))
(assert (forall ((x_3 Nat_0) (y_3 list_0) (x_29 list_0))
	(=>	(and (= x_29 (cons_0 x_3 nil_0))
			(= y_3 nil_0))
		(insert_0 x_29 x_3 y_3))))
(declare-fun isort_0 (list_0 list_0) Bool)
(assert (forall ((x_4 list_0) (y_4 Nat_0) (xs_2 list_0) (x_30 list_0) (x_31 list_0) (x_32 list_0))
	(=>	(and (= x_30 x_32)
			(isort_0 x_31 xs_2)
			(insert_0 x_32 y_4 x_31)
			(= x_4 (cons_0 y_4 xs_2)))
		(isort_0 x_30 x_4))))
(assert (forall ((x_4 list_0) (x_33 list_0))
	(=>	(and (= x_33 nil_0)
			(= x_4 nil_0))
		(isort_0 x_33 x_4))))
(declare-fun drop_0 (list_0 Nat_0 list_0) Bool)
(assert (forall ((x_5 Nat_0) (y_5 list_0) (x_34 list_0))
	(=>	(and (= x_34 y_5)
			(le_0 x_5 Z_0))
		(drop_0 x_34 x_5 y_5))))
(assert (forall ((x_5 Nat_0) (y_5 list_0) (z_2 Nat_0) (xs_3 list_0) (x_35 list_0) (x_36 list_0) (x_74 Nat_0))
	(=>	(and (= x_35 x_36)
			(drop_0 x_36 x_74 xs_3)
			(gt_0 x_5 Z_0)
			(= y_5 (cons_0 z_2 xs_3))
			(minus_0 x_74 x_5 (S_0 Z_0)))
		(drop_0 x_35 x_5 y_5))))
(assert (forall ((x_5 Nat_0) (y_5 list_0) (x_37 list_0))
	(=>	(and (= x_37 y_5)
			(le_0 x_5 Z_0))
		(drop_0 x_37 x_5 y_5))))
(assert (forall ((x_5 Nat_0) (y_5 list_0) (x_38 list_0))
	(=>	(and (= x_38 nil_0)
			(gt_0 x_5 Z_0)
			(= y_5 nil_0))
		(drop_0 x_38 x_5 y_5))))
(declare-fun splitAt_0 (pair_0 Nat_0 list_0) Bool)
(assert (forall ((x_6 Nat_0) (y_6 list_0) (x_39 pair_0) (x_40 list_0) (x_41 list_0))
	(=>	(and (= x_39 (pair_1 x_40 x_41))
			(take_0 x_40 x_6 y_6)
			(drop_0 x_41 x_6 y_6))
		(splitAt_0 x_39 x_6 y_6))))
(declare-fun x_7 (list_0 list_0 list_0) Bool)
(assert (forall ((x_8 list_0) (y_7 list_0) (z_3 Nat_0) (xs_4 list_0) (x_42 list_0) (x_43 list_0))
	(=>	(and (= x_42 (cons_0 z_3 x_43))
			(x_7 x_43 xs_4 y_7)
			(= x_8 (cons_0 z_3 xs_4)))
		(x_7 x_42 x_8 y_7))))
(assert (forall ((x_8 list_0) (y_7 list_0) (x_44 list_0))
	(=>	(and (= x_44 y_7)
			(= x_8 nil_0))
		(x_7 x_44 x_8 y_7))))
(declare-fun reverse_0 (list_0 list_0) Bool)
(assert (forall ((x_9 list_0) (y_8 Nat_0) (xs_5 list_0) (x_45 list_0) (x_46 list_0) (x_47 list_0))
	(=>	(and (= x_45 x_47)
			(reverse_0 x_46 xs_5)
			(x_7 x_47 x_46 (cons_0 y_8 nil_0))
			(= x_9 (cons_0 y_8 xs_5)))
		(reverse_0 x_45 x_9))))
(assert (forall ((x_9 list_0) (x_48 list_0))
	(=>	(and (= x_48 nil_0)
			(= x_9 nil_0))
		(reverse_0 x_48 x_9))))
(declare-fun stoogesort_0 (list_0 list_0) Bool)
(declare-fun stoogesort_1 (list_0 list_0) Bool)
(declare-fun stoogesort_2 (list_0 list_0) Bool)
(assert (forall ((x_10 list_0) (ys_0 list_0) (zs_0 list_0) (x_52 list_0) (x_53 list_0) (x_54 list_0) (x_55 list_0) (x_49 Nat_0) (x_50 list_0) (x_51 pair_0) (x_75 Nat_0))
	(=>	(and (= x_52 x_55)
			(stoogesort_1 x_53 zs_0)
			(reverse_0 x_54 ys_0)
			(x_7 x_55 x_53 x_54)
			(= x_51 (pair_1 ys_0 zs_0))
			(length_0 x_49 x_10)
			(reverse_0 x_50 x_10)
			(splitAt_0 x_51 x_75 x_50)
			(div_0 x_75 x_49 (S_0 (S_0 (S_0 Z_0)))))
		(stoogesort_0 x_52 x_10))))
(assert (forall ((x_11 list_0) (y_9 Nat_0) (z_4 list_0) (y_10 Nat_0) (x_12 list_0) (x_13 Nat_0) (x_14 list_0) (x_56 list_0) (x_57 list_0) (x_58 list_0) (x_59 list_0))
	(=>	(and (= x_56 x_59)
			(stoogesort_0 x_57 (cons_0 y_9 (cons_0 y_10 (cons_0 x_13 x_14))))
			(stoogesort_2 x_58 x_57)
			(stoogesort_0 x_59 x_58)
			(= x_11 (cons_0 y_9 z_4))
			(= z_4 (cons_0 y_10 x_12))
			(= x_12 (cons_0 x_13 x_14)))
		(stoogesort_1 x_56 x_11))))
(assert (forall ((x_11 list_0) (y_9 Nat_0) (z_4 list_0) (y_10 Nat_0) (x_12 list_0) (x_60 list_0) (x_61 list_0))
	(=>	(and (= x_60 x_61)
			(sort_0 x_61 y_9 y_10)
			(= x_11 (cons_0 y_9 z_4))
			(= z_4 (cons_0 y_10 x_12))
			(= x_12 nil_0))
		(stoogesort_1 x_60 x_11))))
(assert (forall ((x_11 list_0) (y_9 Nat_0) (z_4 list_0) (x_62 list_0))
	(=>	(and (= x_62 (cons_0 y_9 nil_0))
			(= x_11 (cons_0 y_9 z_4))
			(= z_4 nil_0))
		(stoogesort_1 x_62 x_11))))
(assert (forall ((x_11 list_0) (x_63 list_0))
	(=>	(and (= x_63 nil_0)
			(= x_11 nil_0))
		(stoogesort_1 x_63 x_11))))
(assert (forall ((x_15 list_0) (ys_1 list_0) (zs_1 list_0) (x_66 list_0) (x_67 list_0) (x_68 list_0) (x_64 Nat_0) (x_65 pair_0) (x_76 Nat_0))
	(=>	(and (= x_66 x_68)
			(stoogesort_1 x_67 zs_1)
			(x_7 x_68 ys_1 x_67)
			(= x_65 (pair_1 ys_1 zs_1))
			(length_0 x_64 x_15)
			(splitAt_0 x_65 x_76 x_15)
			(div_0 x_76 x_64 (S_0 (S_0 (S_0 Z_0)))))
		(stoogesort_2 x_66 x_15))))
(assert (forall ((xs_6 list_0) (x_69 list_0) (x_70 list_0))
	(=>	(and (diseqlist_0 x_69 x_70)
			(stoogesort_1 x_69 xs_6)
			(isort_0 x_70 xs_6))
		false)))
(check-sat)
